SECTION Graph 
Nodes 400
Edges 760
E 1 2 45
E 1 21 39
E 2 3 42
E 2 22 43
E 3 4 42
E 3 23 44
E 4 5 45
E 4 24 41
E 5 6 42
E 5 25 37
E 6 7 45
E 6 26 43
E 7 8 45
E 7 27 43
E 8 9 41
E 8 28 43
E 9 10 40
E 9 29 41
E 10 11 40
E 10 30 38
E 11 12 45
E 11 31 39
E 12 13 40
E 12 32 43
E 13 14 43
E 13 33 39
E 14 15 42
E 14 34 43
E 15 16 37
E 15 35 38
E 16 17 42
E 16 36 45
E 17 18 37
E 17 37 43
E 18 19 43
E 18 38 41
E 19 20 44
E 19 39 43
E 20 40 39
E 21 22 44
E 21 41 39
E 22 23 41
E 22 42 45
E 23 24 45
E 23 43 43
E 24 25 45
E 24 44 41
E 25 26 45
E 25 45 39
E 26 27 42
E 26 46 37
E 27 28 41
E 27 47 42
E 28 29 42
E 28 48 38
E 29 30 39
E 29 49 39
E 30 31 41
E 30 50 42
E 31 32 42
E 31 51 43
E 32 33 41
E 32 52 38
E 33 34 41
E 33 53 39
E 34 35 37
E 34 54 43
E 35 36 43
E 35 55 39
E 36 37 42
E 36 56 43
E 37 38 43
E 37 57 44
E 38 39 40
E 38 58 37
E 39 40 37
E 39 59 38
E 40 60 37
E 41 42 44
E 41 61 37
E 42 43 43
E 42 62 43
E 43 44 45
E 43 63 38
E 44 45 40
E 44 64 42
E 45 46 37
E 45 65 43
E 46 47 39
E 46 66 43
E 47 48 44
E 47 67 39
E 48 49 41
E 48 68 41
E 49 50 37
E 49 69 43
E 50 51 44
E 50 70 41
E 51 52 39
E 51 71 38
E 52 53 38
E 52 72 40
E 53 54 42
E 53 73 41
E 54 55 45
E 54 74 37
E 55 56 45
E 55 75 37
E 56 57 37
E 56 76 39
E 57 58 42
E 57 77 39
E 58 59 38
E 58 78 45
E 59 60 45
E 59 79 44
E 60 80 44
E 61 62 42
E 61 81 41
E 62 63 38
E 62 82 38
E 63 64 44
E 63 83 40
E 64 65 38
E 64 84 41
E 65 66 40
E 65 85 39
E 66 67 38
E 66 86 38
E 67 68 44
E 67 87 44
E 68 69 42
E 68 88 37
E 69 70 40
E 69 89 37
E 70 71 43
E 70 90 37
E 71 72 43
E 71 91 41
E 72 73 39
E 72 92 45
E 73 74 41
E 73 93 41
E 74 75 44
E 74 94 45
E 75 76 38
E 75 95 40
E 76 77 43
E 76 96 41
E 77 78 40
E 77 97 41
E 78 79 40
E 78 98 45
E 79 80 37
E 79 99 45
E 80 100 45
E 81 82 37
E 81 101 40
E 82 83 37
E 82 102 38
E 83 84 41
E 83 103 37
E 84 85 43
E 84 104 41
E 85 86 39
E 85 105 42
E 86 87 38
E 86 106 44
E 87 88 41
E 87 107 37
E 88 89 39
E 88 108 43
E 89 90 39
E 89 109 40
E 90 91 42
E 90 110 45
E 91 92 39
E 91 111 42
E 92 93 44
E 92 112 45
E 93 94 39
E 93 113 43
E 94 95 41
E 94 114 45
E 95 96 41
E 95 115 41
E 96 97 39
E 96 116 40
E 97 98 45
E 97 117 41
E 98 99 38
E 98 118 44
E 99 100 38
E 99 119 37
E 100 120 41
E 101 102 38
E 101 121 39
E 102 103 45
E 102 122 38
E 103 104 42
E 103 123 44
E 104 105 38
E 104 124 42
E 105 106 41
E 105 125 44
E 106 107 41
E 106 126 44
E 107 108 44
E 107 127 37
E 108 109 40
E 108 128 38
E 109 110 42
E 109 129 44
E 110 111 39
E 110 130 37
E 111 112 37
E 111 131 39
E 112 113 38
E 112 132 40
E 113 114 38
E 113 133 45
E 114 115 39
E 114 134 38
E 115 116 37
E 115 135 42
E 116 117 41
E 116 136 45
E 117 118 41
E 117 137 39
E 118 119 45
E 118 138 38
E 119 120 43
E 119 139 38
E 120 140 45
E 121 122 43
E 121 141 43
E 122 123 37
E 122 142 44
E 123 124 37
E 123 143 43
E 124 125 40
E 124 144 43
E 125 126 40
E 125 145 43
E 126 127 41
E 126 146 42
E 127 128 45
E 127 147 45
E 128 129 43
E 128 148 41
E 129 130 45
E 129 149 40
E 130 131 42
E 130 150 37
E 131 132 44
E 131 151 8
E 132 133 43
E 132 152 7
E 133 134 44
E 133 153 8
E 134 135 45
E 134 154 7
E 135 136 39
E 135 155 3
E 136 137 43
E 136 156 9
E 137 138 45
E 137 157 2
E 138 139 44
E 138 158 2
E 139 140 39
E 139 159 4
E 140 160 6
E 141 142 45
E 141 161 9
E 142 143 43
E 142 162 1
E 143 144 43
E 143 163 9
E 144 145 41
E 144 164 2
E 145 146 39
E 145 165 9
E 146 147 42
E 146 166 7
E 147 148 45
E 147 167 9
E 148 149 40
E 148 168 3
E 149 150 42
E 149 169 6
E 150 151 6
E 150 170 8
E 151 152 3
E 151 171 7
E 152 153 6
E 152 172 4
E 153 154 1
E 153 173 1
E 154 155 8
E 154 174 2
E 155 156 9
E 155 175 5
E 156 157 5
E 156 176 6
E 157 158 8
E 157 177 8
E 158 159 7
E 158 178 7
E 159 160 5
E 159 179 8
E 160 180 3
E 161 162 3
E 161 181 4
E 162 163 5
E 162 182 9
E 163 164 2
E 163 183 2
E 164 165 7
E 164 184 1
E 165 166 5
E 165 185 7
E 166 167 4
E 166 186 2
E 167 168 8
E 167 187 7
E 168 169 2
E 168 188 3
E 169 170 4
E 169 189 4
E 170 171 5
E 170 190 6
E 171 172 6
E 171 191 4
E 172 173 7
E 172 192 4
E 173 174 4
E 173 193 6
E 174 175 3
E 174 194 6
E 175 176 9
E 175 195 8
E 176 177 5
E 176 196 5
E 177 178 1
E 177 197 5
E 178 179 4
E 178 198 4
E 179 180 8
E 179 199 8
E 180 200 8
E 181 182 2
E 181 201 6
E 182 183 9
E 182 202 5
E 183 184 1
E 183 203 2
E 184 185 4
E 184 204 4
E 185 186 9
E 185 205 2
E 186 187 4
E 186 206 7
E 187 188 3
E 187 207 9
E 188 189 3
E 188 208 8
E 189 190 6
E 189 209 5
E 190 191 3
E 190 210 1
E 191 192 3
E 191 211 3
E 192 193 4
E 192 212 2
E 193 194 7
E 193 213 5
E 194 195 4
E 194 214 5
E 195 196 2
E 195 215 5
E 196 197 8
E 196 216 3
E 197 198 6
E 197 217 7
E 198 199 9
E 198 218 1
E 199 200 9
E 199 219 4
E 200 220 5
E 201 202 5
E 201 221 1
E 202 203 9
E 202 222 1
E 203 204 6
E 203 223 5
E 204 205 6
E 204 224 1
E 205 206 3
E 205 225 5
E 206 207 1
E 206 226 9
E 207 208 2
E 207 227 5
E 208 209 7
E 208 228 2
E 209 210 2
E 209 229 5
E 210 211 6
E 210 230 4
E 211 212 5
E 211 231 7
E 212 213 4
E 212 232 9
E 213 214 4
E 213 233 3
E 214 215 2
E 214 234 3
E 215 216 4
E 215 235 2
E 216 217 3
E 216 236 7
E 217 218 2
E 217 237 4
E 218 219 3
E 218 238 6
E 219 220 7
E 219 239 6
E 220 240 8
E 221 222 5
E 221 241 6
E 222 223 4
E 222 242 1
E 223 224 1
E 223 243 3
E 224 225 2
E 224 244 9
E 225 226 1
E 225 245 7
E 226 227 7
E 226 246 4
E 227 228 2
E 227 247 3
E 228 229 3
E 228 248 3
E 229 230 2
E 229 249 7
E 230 231 1
E 230 250 8
E 231 232 8
E 231 251 7
E 232 233 6
E 232 252 4
E 233 234 3
E 233 253 5
E 234 235 5
E 234 254 6
E 235 236 7
E 235 255 9
E 236 237 4
E 236 256 9
E 237 238 7
E 237 257 6
E 238 239 8
E 238 258 7
E 239 240 2
E 239 259 7
E 240 260 6
E 241 242 8
E 241 261 8
E 242 243 4
E 242 262 9
E 243 244 8
E 243 263 6
E 244 245 9
E 244 264 8
E 245 246 2
E 245 265 5
E 246 247 9
E 246 266 5
E 247 248 2
E 247 267 6
E 248 249 5
E 248 268 3
E 249 250 3
E 249 269 7
E 250 251 2
E 250 270 6
E 251 252 6
E 251 271 1
E 252 253 4
E 252 272 9
E 253 254 7
E 253 273 3
E 254 255 6
E 254 274 9
E 255 256 1
E 255 275 6
E 256 257 9
E 256 276 9
E 257 258 6
E 257 277 2
E 258 259 8
E 258 278 7
E 259 260 8
E 259 279 9
E 260 280 7
E 261 262 6
E 261 281 4
E 262 263 9
E 262 282 4
E 263 264 3
E 263 283 7
E 264 265 1
E 264 284 3
E 265 266 3
E 265 285 6
E 266 267 1
E 266 286 7
E 267 268 4
E 267 287 8
E 268 269 3
E 268 288 8
E 269 270 4
E 269 289 7
E 270 271 1
E 270 290 3
E 271 272 9
E 271 291 7
E 272 273 4
E 272 292 4
E 273 274 7
E 273 293 7
E 274 275 8
E 274 294 8
E 275 276 8
E 275 295 9
E 276 277 8
E 276 296 6
E 277 278 3
E 277 297 3
E 278 279 3
E 278 298 4
E 279 280 4
E 279 299 6
E 280 300 8
E 281 282 1
E 281 301 7
E 282 283 7
E 282 302 3
E 283 284 7
E 283 303 5
E 284 285 9
E 284 304 3
E 285 286 9
E 285 305 5
E 286 287 4
E 286 306 6
E 287 288 7
E 287 307 9
E 288 289 7
E 288 308 3
E 289 290 7
E 289 309 1
E 290 291 2
E 290 310 1
E 291 292 5
E 291 311 1
E 292 293 5
E 292 312 1
E 293 294 2
E 293 313 8
E 294 295 3
E 294 314 7
E 295 296 6
E 295 315 4
E 296 297 3
E 296 316 8
E 297 298 5
E 297 317 6
E 298 299 1
E 298 318 1
E 299 300 7
E 299 319 2
E 300 320 5
E 301 302 8
E 301 321 4
E 302 303 1
E 302 322 4
E 303 304 1
E 303 323 6
E 304 305 7
E 304 324 1
E 305 306 3
E 305 325 9
E 306 307 7
E 306 326 7
E 307 308 5
E 307 327 8
E 308 309 3
E 308 328 9
E 309 310 7
E 309 329 3
E 310 311 2
E 310 330 3
E 311 312 9
E 311 331 8
E 312 313 8
E 312 332 6
E 313 314 1
E 313 333 8
E 314 315 1
E 314 334 8
E 315 316 1
E 315 335 3
E 316 317 7
E 316 336 9
E 317 318 5
E 317 337 4
E 318 319 2
E 318 338 7
E 319 320 3
E 319 339 4
E 320 340 2
E 321 322 6
E 321 341 1
E 322 323 2
E 322 342 9
E 323 324 6
E 323 343 2
E 324 325 5
E 324 344 3
E 325 326 8
E 325 345 6
E 326 327 7
E 326 346 9
E 327 328 6
E 327 347 6
E 328 329 6
E 328 348 8
E 329 330 8
E 329 349 6
E 330 331 7
E 330 350 6
E 331 332 5
E 331 351 6
E 332 333 6
E 332 352 4
E 333 334 5
E 333 353 9
E 334 335 2
E 334 354 1
E 335 336 4
E 335 355 5
E 336 337 6
E 336 356 4
E 337 338 4
E 337 357 9
E 338 339 7
E 338 358 6
E 339 340 6
E 339 359 5
E 340 360 2
E 341 342 1
E 341 361 4
E 342 343 8
E 342 362 1
E 343 344 7
E 343 363 1
E 344 345 8
E 344 364 2
E 345 346 7
E 345 365 6
E 346 347 2
E 346 366 8
E 347 348 9
E 347 367 5
E 348 349 1
E 348 368 9
E 349 350 7
E 349 369 9
E 350 351 2
E 350 370 9
E 351 352 1
E 351 371 7
E 352 353 4
E 352 372 5
E 353 354 6
E 353 373 8
E 354 355 6
E 354 374 5
E 355 356 4
E 355 375 7
E 356 357 6
E 356 376 2
E 357 358 8
E 357 377 9
E 358 359 6
E 358 378 8
E 359 360 4
E 359 379 4
E 360 380 4
E 361 362 1
E 361 381 4
E 362 363 7
E 362 382 8
E 363 364 3
E 363 383 9
E 364 365 3
E 364 384 5
E 365 366 7
E 365 385 9
E 366 367 8
E 366 386 8
E 367 368 9
E 367 387 4
E 368 369 8
E 368 388 7
E 369 370 4
E 369 389 1
E 370 371 7
E 370 390 8
E 371 372 8
E 371 391 7
E 372 373 4
E 372 392 3
E 373 374 8
E 373 393 7
E 374 375 4
E 374 394 8
E 375 376 9
E 375 395 8
E 376 377 2
E 376 396 7
E 377 378 1
E 377 397 3
E 378 379 2
E 378 398 6
E 379 380 1
E 379 399 2
E 380 400 1
E 381 382 2
E 382 383 7
E 383 384 7
E 384 385 7
E 385 386 7
E 386 387 3
E 387 388 2
E 388 389 1
E 389 390 2
E 390 391 2
E 391 392 9
E 392 393 2
E 393 394 9
E 394 395 7
E 395 396 3
E 396 397 7
E 397 398 5
E 398 399 6
E 399 400 3
END 

SECTION Terminals 
Terminals 170
TP 1 177
TP 5 179
TP 6 180
TP 9 181
TP 12 182
TP 13 185
TP 14 191
TP 15 192
TP 16 193
TP 19 205
TP 20 208
TP 24 210
TP 29 216
TP 31 217
TP 32 218
TP 34 231
TP 35 234
TP 36 235
TP 37 240
TP 40 241
TP 44 246
TP 45 252
TP 46 254
TP 48 255
TP 50 256
TP 53 258
TP 54 266
TP 55 269
TP 58 270
TP 60 273
TP 63 274
TP 66 277
TP 67 280
TP 69 281
TP 70 282
TP 72 283
TP 73 284
TP 76 285
TP 77 288
TP 79 290
TP 80 296
TP 82 300
TP 83 303
TP 84 305
TP 87 306
TP 89 307
TP 90 309
TP 91 311
TP 92 312
TP 93 317
TP 96 318
TP 98 321
TP 103 325
TP 106 327
TP 107 332
TP 108 333
TP 110 334
TP 115 336
TP 116 337
TP 123 346
TP 124 351
TP 126 352
TP 127 354
TP 128 356
TP 131 358
TP 133 359
TP 137 361
TP 139 362
TP 143 363
TP 144 368
TP 145 370
TP 148 372
TP 149 373
TP 151 375
TP 155 377
TP 157 378
TP 164 379
TP 165 381
TP 166 384
TP 168 385
TP 169 388
TP 170 391
TP 172 395
TP 173 396
TP 174 397
END 
